p wcnf 154 183 184 
1 -79 -77 0 
1 48 108 0 
1 127 -8 0 
1 -22 -3 0 
1 93 6 0 
1 -125 -140 0 
1 59 -65 0 
1 123 64 0 
1 -104 -44 0 
1 148 -105 0 
1 129 -132 0 
1 94 -31 0 
1 -125 -72 0 
1 30 -148 0 
1 82 -147 0 
1 -92 -95 0 
1 -89 -35 0 
1 -21 -71 0 
1 56 -147 0 
1 35 -126 0 
1 58 55 0 
1 -49 9 0 
1 107 -64 0 
1 -85 -110 0 
1 38 108 0 
1 17 -51 0 
1 -101 -16 0 
1 11 -66 0 
1 139 7 0 
1 -31 143 0 
1 55 84 0 
1 84 97 0 
1 -126 -96 0 
1 76 -52 0 
1 -123 93 0 
1 29 93 0 
1 -81 68 0 
1 115 -56 0 
1 82 9 0 
1 -52 133 0 
1 71 110 0 
1 57 -139 0 
1 110 -152 0 
1 50 -110 0 
1 55 -47 0 
1 42 -88 0 
1 24 102 0 
1 -40 -54 0 
1 13 83 0 
1 -66 -80 0 
1 60 -113 0 
1 76 -3 0 
1 79 124 0 
1 52 -60 0 
1 26 120 0 
1 87 26 0 
1 -109 -141 0 
1 -102 -66 0 
1 -138 7 0 
1 -37 20 0 
1 26 143 0 
1 -55 89 0 
1 -60 37 0 
1 141 113 0 
1 -82 153 0 
1 134 4 0 
1 110 148 0 
1 132 6 0 
1 25 13 0 
1 -125 78 0 
1 -82 77 0 
1 26 -120 0 
1 -62 -5 0 
1 37 83 0 
1 43 -99 0 
1 121 -43 0 
1 -136 -31 0 
1 111 -145 0 
1 -94 64 0 
1 -130 124 0 
1 -17 84 0 
1 -36 11 0 
1 33 109 0 
1 -60 147 0 
1 121 118 0 
1 83 49 0 
1 25 11 0 
1 -80 -133 0 
1 -103 23 0 
1 -55 6 0 
1 132 131 0 
1 14 7 0 
1 43 -126 0 
1 88 -2 0 
1 -32 -42 0 
1 94 -25 0 
1 -3 48 0 
1 77 16 0 
1 -64 -44 0 
1 18 62 0 
1 -133 20 0 
1 -22 112 0 
1 -48 55 0 
1 -142 -106 0 
1 -79 46 0 
1 142 -63 0 
1 -134 -95 0 
1 -17 -95 0 
1 102 29 0 
1 118 -79 0 
1 -74 24 0 
1 -126 -127 0 
1 10 20 0 
1 -111 -37 0 
1 43 -131 0 
1 -23 32 0 
1 110 -149 0 
1 71 116 0 
1 -77 -113 0 
1 58 24 0 
1 -136 -106 0 
1 100 -24 0 
1 -124 133 0 
1 -3 -152 0 
1 135 63 0 
1 -128 138 0 
1 33 64 0 
1 15 -9 0 
1 1 -36 0 
1 -148 153 0 
1 118 48 0 
1 32 64 0 
1 126 -116 0 
1 19 120 0 
1 -92 -75 0 
1 20 -28 0 
1 -110 104 0 
1 -87 -126 0 
1 19 -131 0 
1 -87 56 0 
1 33 150 0 
1 -101 41 0 
1 124 75 0 
1 -59 27 0 
1 -29 -34 0 
1 65 -104 0 
1 92 -143 0 
1 39 127 0 
1 17 -10 0 
1 27 -72 0 
1 -42 -26 0 
1 -77 46 0 
1 -37 -82 0 
1 -118 -101 0 
1 27 50 0 
1 67 27 0 
1 70 -100 0 
1 124 -70 0 
1 -82 -41 0 
1 -104 18 0 
1 -126 -31 0 
1 -41 -149 0 
1 -127 -134 0 
1 126 -86 0 
1 -120 31 0 
1 -69 29 0 
1 -120 2 0 
1 -58 23 0 
1 -98 71 0 
1 -134 49 0 
1 83 -119 0 
1 -108 129 0 
1 -54 -102 0 
1 123 105 0 
1 -148 12 0 
1 -15 -71 0 
1 -69 -52 0 
1 -31 -92 0 
1 151 33 0 
1 86 -10 0 
1 -48 -106 0 
1 -89 -73 0 
1 8 133 0 
